p cnf 20 36
-1 4 5 11 16 0 
-1 4 5 11 -2 17 0 
-1 4 5 11 -3 16 0 
-1 4 5 11 17 0 
-1 4 5 11 -2 16 0 
-4 1 5 11 17 0 
-5 1 4 11 18 0 
-6 -2 18 0 
-6 -2 19 0 
-6 -2 16 0 
-7 13 19 0 
-2 18 0 
-8 16 0 
-2 16 0 
-7 13 20 0 
-2 -6 20 0 
-2 20 0 
-1 4 5 11 20 0 
-1 4 5 11 -8 20 0 
-1 4 5 11 -2 20 0 
-9 20 0 
-10 -11 1 4 5 20 0 
-12 14 15 20 0 
-13 7 17 0 
-10 -11 1 4 5 17 0 
-13 7 18 0 
-4 1 5 11 20 0 
-14 12 15 20 0 
-7 13 16 0 
-2 17 0 
-2 -6 16 0 
-2 -6 19 0 
-8 18 0 
-15 12 14 16 0 
-6 16 0 
-1 4 5 11 -7 13 16 0 
